c WARNING: for repeatability, setting FPU to use double precision
d VARIABLES            116908       
d CONSTRAINTS          523953       
c ============================[ Problem Statistics ]=============================
c |                                                                             |
c |  Number of variables:        116908                                         |
c |  Number of clauses:          523953                                         |
c |  Parse time:                   0.07 s                                       |
c |                                                                             |
c ============================[ Search Statistics ]==============================
c | Conflicts |          ORIGINAL         |          LEARNT          | Progress |
c |           |    Vars  Clauses Literals |    Limit  Clauses Lit/Cl |          |
c ===============================================================================
c |       100 |  100426   477257  1154714 |   174994      100     35 | 14.098 % |
c |       250 |  100426   477257  1154714 |   192493      250     33 | 14.098 % |
c |       475 |  100426   477257  1154714 |   211743      475     56 | 14.098 % |
c |       812 |  100426   477257  1154714 |   232917      812     79 | 14.098 % |
c |      1318 |  100426   477257  1154714 |   256209     1318     83 | 14.098 % |
c |      2077 |  100426   477257  1154714 |   281829     2077     95 | 14.098 % |
c |      3216 |  100426   477257  1154714 |   310012     3216    104 | 14.098 % |
c |      4924 |  100426   477257  1154714 |   341014     4924    110 | 14.098 % |
c |      7486 |  100426   477257  1154714 |   375115     7486    120 | 14.098 % |
c |     11330 |  100426   477257  1154714 |   412627    11330    122 | 14.098 % |
c |     17096 |  100426   477257  1154714 |   453889    17096    141 | 14.098 % |
c |     25745 |  100426   477257  1154714 |   499278    25745    158 | 14.098 % |
c |     38719 |  100426   477257  1154714 |   549206    38719    167 | 14.098 % |
c |     58180 |  100426   477257  1154714 |   604127    58180    186 | 14.098 % |
c |     87372 |  100426   477257  1154714 |   664540    87372    195 | 14.098 % |
c |    131161 |  100426   477257  1154714 |   730994   131161    198 | 14.098 % |
c |    196845 |  100415   477202  1154582 |   804093   196842    203 | 14.108 % |
c |    295371 |  100415   477202  1154582 |   884503   295368    215 | 14.108 % |
c |    443160 |  100406   477157  1154474 |   972953   443155    221 | 14.115 % |
c |    664843 |  100394   477112  1154366 |  1070248   664834    230 | 14.126 % |
c |    997368 |  100385   477052  1154222 |  1177273   997358    230 | 14.133 % |
c |   1496156 |  100366   476958  1153996 |  1295001   333352    185 | 14.150 % |
c ===============================================================================
c restarts              : 3674
c conflicts             : 1897261        (1058 /sec)
c decisions             : 5132090        (0.00 % random) (2863 /sec)
c propagations          : 4267890649     (2380557 /sec)
c conflict literals     : 428825948      (43.08 % deleted)
d RESTARTS             3674
d FAILURES             1897261      
d NODES                5132090      
d BACKTRACKS           5132090      
d PROPAGATIONS         4267890649   
d NOGOODSIZE           226.02 
d MEMORY               1580.00 
d TIME                 1792.81 

s UNKNOWN
